73
0 17 1 47 19 71 65 40 66 5 
26 45 35 23 8 6 49 46 43 70 
72 29 14 67 21 30 15 38 33 39 
59 48 10 28 9 31 36 64 24 58 
50 44 68 55 63 22 57 18 52 12 
20 11 27 61 16 69 34 7 25 3 
32 41 60 56 13 53 2 42 62 4 
37 51 54 
